
Gurobi 9.5.1 (linux64) logging started Wed Mar  9 18:04:56 2022

Set parameter LogFile to value "../results/logs/log_2022_03_09_17_57.csv_5_45.log"
Set parameter Method to value 3
Gurobi Optimizer version 9.5.1 build v9.5.1rc2 (linux64)
Thread count: 8 physical cores, 8 logical processors, using up to 8 threads
Optimize a model with 1783 rows, 9882 columns and 22585 nonzeros
Model fingerprint: 0xa187213f
Variable types: 4941 continuous, 4941 integer (4941 binary)
Coefficient statistics:
  Matrix range     [1e+00, 5e+00]
  Objective range  [1e+00, 1e+00]
  Bounds range     [1e+00, 1e+00]
  RHS range        [1e+00, 4e+01]
Found heuristic solution: objective 12.0000000
Presolve removed 944 rows and 8566 columns
Presolve time: 0.03s
Presolved: 839 rows, 1316 columns, 4810 nonzeros
Variable types: 741 continuous, 575 integer (555 binary)
Found heuristic solution: objective 23.0000000

Concurrent LP optimizer: primal simplex, dual simplex, and barrier
Showing barrier log only...

Root barrier log...

Ordering time: 0.00s

Barrier statistics:
 AA' NZ     : 3.463e+03
 Factor NZ  : 9.369e+03 (roughly 1 MB of memory)
 Factor Ops : 1.271e+05 (less than 1 second per iteration)
 Threads    : 1

                  Objective                Residual
Iter       Primal          Dual         Primal    Dual     Compl     Time
   0   1.80400436e+03  1.81544293e+03  1.38e+03 8.41e-01  6.93e+00     0s
   1   4.02778470e+02  1.73081502e+03  2.02e+02 2.66e-15  1.24e+00     0s
   2   2.14880981e+02  5.35379474e+02  3.64e+01 2.66e-15  2.14e-01     0s
   3   1.40855844e+02  2.07935360e+02  5.38e+00 2.33e-15  3.76e-02     0s
   4   1.29251667e+02  1.46582746e+02  4.89e-01 3.68e-15  6.58e-03     0s
   5   1.30942559e+02  1.37320807e+02  2.23e-01 2.66e-15  2.53e-03     0s
   6   1.31845038e+02  1.34015669e+02  1.03e-01 2.36e-15  9.23e-04     0s
   7   1.32465092e+02  1.33170259e+02  3.13e-02 2.69e-15  2.94e-04     0s
   8   1.32735436e+02  1.32862724e+02  5.14e-03 3.07e-15  5.16e-05     0s
   9   1.32780470e+02  1.32811837e+02  1.09e-03 1.88e-15  1.22e-05     0s
  10   1.32797514e+02  1.32802188e+02  1.66e-04 3.12e-15  1.83e-06     0s
  11   1.32800567e+02  1.32800703e+02  7.11e-15 2.43e-15  4.06e-08     0s
  12   1.32800654e+02  1.32800654e+02  5.68e-14 2.21e-15  4.14e-11     0s

Barrier solved model in 12 iterations and 0.04 seconds (0.04 work units)
Optimal objective 1.32800654e+02


Solved with barrier

Root relaxation: objective 1.328007e+02, 251 iterations, 0.01 seconds (0.01 work units)

    Nodes    |    Current Node    |     Objective Bounds      |     Work
 Expl Unexpl |  Obj  Depth IntInf | Incumbent    BestBd   Gap | It/Node Time

     0     0  132.80065    0  279   23.00000  132.80065   477%     -    0s
H    0     0                      57.0000000  132.80065   133%     -    0s
H    0     0                      58.0000000  132.80065   129%     -    0s
     0     0   92.47192    0  145   58.00000   92.47192  59.4%     -    0s
     0     0   91.20489    0  128   58.00000   91.20489  57.2%     -    0s
     0     0   91.12287    0  122   58.00000   91.12287  57.1%     -    0s
     0     0   91.12137    0  122   58.00000   91.12137  57.1%     -    0s
     0     0   86.22280    0   87   58.00000   86.22280  48.7%     -    0s
     0     0   85.44457    0  107   58.00000   85.44457  47.3%     -    0s
     0     0   85.19994    0   85   58.00000   85.19994  46.9%     -    0s
     0     0   85.18287    0   86   58.00000   85.18287  46.9%     -    0s
     0     0   83.59172    0   85   58.00000   83.59172  44.1%     -    0s
     0     0   83.36935    0   98   58.00000   83.36935  43.7%     -    0s
     0     0   83.31352    0   98   58.00000   83.31352  43.6%     -    0s
     0     0   83.29269    0   98   58.00000   83.29269  43.6%     -    0s
     0     0   82.71309    0  121   58.00000   82.71309  42.6%     -    0s
     0     0   82.60015    0   98   58.00000   82.60015  42.4%     -    0s
     0     0   82.55227    0   88   58.00000   82.55227  42.3%     -    0s
H    0     0                      71.0000000   82.09967  15.6%     -    0s
     0     0   82.09967    0   91   71.00000   82.09967  15.6%     -    0s
     0     0   82.00356    0   99   71.00000   82.00356  15.5%     -    0s
     0     0   81.98925    0  106   71.00000   81.98925  15.5%     -    0s
     0     0   81.74793    0   80   71.00000   81.74793  15.1%     -    0s
     0     0   81.69864    0   74   71.00000   81.69864  15.1%     -    0s
     0     0   81.52648    0   77   71.00000   81.52648  14.8%     -    0s
     0     0   81.52648    0   77   71.00000   81.52648  14.8%     -    0s
     0     2   81.52648    0   77   71.00000   81.52648  14.8%     -    0s
H   32    40                      75.0000000   81.04792  8.06%  45.9    0s
*  192   172              21      80.0000000   81.04792  1.31%  33.2    0s

Cutting planes:
  Gomory: 81
  Lift-and-project: 15
  Implied bound: 15
  MIR: 376
  RLT: 81
  Relax-and-lift: 12

Explored 257 nodes (8781 simplex iterations) in 0.61 seconds (0.65 work units)
Thread count was 8 (of 8 available processors)

Solution count 7: 80 75 71 ... 12

Optimal solution found (tolerance 1.00e-04)
Best objective 8.000000000000e+01, best bound 8.000000000000e+01, gap 0.0000%
